NAME : Synth-n11-k2-s1
COMMENT : Synthetic small hard CVRP instance for quantum simulation
TYPE : CVRP
DIMENSION : 11
EDGE_WEIGHT_TYPE : EUC_2D
CAPACITY : 28
NODE_COORD_SECTION
1 50.000000 50.000000
2 45.675006 67.982872
3 38.524046 74.834744
4 16.986175 53.459309
5 32.032496 45.400570
6 39.162081 26.319665
7 47.831698 17.176221
8 62.338437 37.906551
9 74.234555 40.419383
10 79.234891 64.931246
11 62.285134 63.172521
DEMAND_SECTION
1 0
2 2
3 5
4 5
5 4
6 2
7 8
8 5
9 7
10 2
11 7
DEPOT_SECTION
1
-1
EOF
